Solving original (integer) problem with strategy gdp.binary_multiplication...
--- Job model.gms Start 02/19/26 09:50:09 52.2.0 d8e408be LEX-LEG x86 64bit/Linux
--- Applying:
    /package/gams/52.2/gmsprmun.txt
--- GAMS Parameters defined
    Input /local/scratch/a/sgusev/repos/k_means/data/gams_scip_gdp.binary_multiplication/no_mode/2026-02-19_09-50-09/original/model.gms
    Output /local/scratch/a/sgusev/repos/k_means/data/gams_scip_gdp.binary_multiplication/no_mode/2026-02-19_09-50-09/original/output.lst
    ScrDir /local/scratch/a/sgusev/repos/k_means/data/gams_scip_gdp.binary_multiplication/no_mode/2026-02-19_09-50-09/original/225a/
    SysDir /package/gams/52.2/
    CurDir /local/scratch/a/sgusev/repos/k_means/data/gams_scip_gdp.binary_multiplication/no_mode/2026-02-19_09-50-09/original/
    LogOption 3
    AppendLog 1
Licensee: David Bernal / SECQUOIA Research Group         G251008+0003Ac-GEN
          Purdue University, Davidson School of Chemical EngineeringDCE4838
          225a/gamslice.dat
          5a82958a-fbca-4a23
          node:66820903 mem:995 cores:48 ipport:35089 v:2                  
          Evaluation license: Not for commercial or production use
          The time-limited license stops working on : Jun 30, 2027
System information: 48 physical cores and 995 Gb physical memory detected
GAMS 52.2.0   Copyright (C) 1987-2025 GAMS Development. All rights reserved
--- Starting compilation
--- model.gms(210) 2 Mb
--- $echo File /local/scratch/a/sgusev/repos/k_means/data/gams_scip_gdp.binary_multiplication/no_mode/2026-02-19_09-50-09/original/scip.opt
--- model.gms(376) 2 Mb
--- Starting execution: elapsed 0:00:00.006
--- model.gms(220) 3 Mb
--- Generating MINLP model GAMS_MODEL
--- model.gms(224) 5 Mb
---   43 rows  56 columns  255 non-zeroes
---   690 nl-code  210 nl-non-zeroes
---   30 discrete-columns
--- Range statistics (absolute non-zero finite values)
--- RHS       [min, max] : [ 1.000E+00, 1.000E+00] - Zero values observed as well
--- Bound     [min, max] : [ 1.000E+00, 1.000E+02] - Zero values observed as well
--- Matrix    [min, max] : [ 6.138E-01, 2.740E+00] - Zero values observed as well
--- model.gms(224) 3 Mb
--- Executing SCIP (Solvelink=5): elapsed 0:00:00.008

SCIP             52.2.0 d8e408be Dec 8, 2025           LEG x86 64bit/Linux    
SCIP version 9.2.4 (a94f778ac8)
Copyright (c) 2002-2025 Zuse Institute Berlin (ZIB)

External libraries: 
  CPLEX 22.1.2.0       Linear Programming Solver developed by IBM (www.cplex.com)
  CppAD 20180000.0     Algorithmic Differentiation of C++ algorithms developed by B. Bell (github.com/coin-or/CppAD)
  PaPILO 2.4.4         parallel presolve for integer and linear optimization (github.com/scipopt/papilo) (built with TBB) [GitHash: 7c826d50]
  Nauty 2.8.9          Computing Graph Automorphism Groups by Brendan D. McKay (users.cecs.anu.edu.au/~bdm/nauty)
  sassy 1.1            Symmetry preprocessor by Markus Anders (github.com/markusa4/sassy)
  Ipopt 3.14.19        Interior Point Optimizer developed by A. Waechter et.al. (github.com/coin-or/Ipopt)

reading option file /local/scratch/a/sgusev/repos/k_means/data/gams_scip_gdp.binary_multiplication/no_mode/2026-02-19_09-50-09/original/scip.opt
non-default parameter settings:
limits/time = 300
limits/gap = 1e-06
limits/absgap = 1e-10
lp/threads = 1
misc/printreason = FALSE
numerics/dualfeastol = 1e-06
parallel/maxnthreads = 1
nlpi/ipopt/linear_solver = "ma27"
nlpi/ipopt/linear_system_scaling = "mc19"

original problem has 55 variables (30 bin, 0 int, 25 cont) and 42 constraints

all 1 solutions given by solution candidate storage are infeasible

feasible solution found by trivial heuristic after 0.0 seconds, objective value 1.000000e+03
presolving:
(round 1, exhaustive) 0 del vars, 0 del conss, 0 add conss, 0 chg bounds, 0 chg sides, 0 chg coeffs, 10 upgd conss, 0 impls, 10 clqs
   (0.0s) probing cycle finished: starting next cycle
   (0.0s) symmetry computation started: requiring (bin +, int +, cont +), (fixed: bin -, int -, cont -)
   (0.0s) no symmetry present (symcode time: 0.00)
presolving (2 rounds: 2 fast, 2 medium, 2 exhaustive):
 0 deleted vars, 0 deleted constraints, 0 added constraints, 0 tightened bounds, 0 added holes, 0 changed sides, 0 changed coefficients
 0 implications, 10 cliques
presolved problem has 55 variables (30 bin, 0 int, 0 impl, 25 cont) and 42 constraints
     10 constraints of type <setppc>
      2 constraints of type <linear>
     30 constraints of type <nonlinear>
Presolving Time: 0.01
transformed 1/1 original solutions to the transformed problem space

 time | node  | left  |LP iter|LP it/n|mem/heur|mdpt |vars |cons |rows |cuts |sepa|confs|strbr|  dualbound   | primalbound  |  gap   | compl. 
  0.1s|     1 |     0 |     0 |     - |  3719k |   0 | 430 |  42 | 252 |   0 |  0 |   0 |   0 | 0.000000e+00 | 1.000000e+03 |    Inf | unknown
L 0.1s|     1 |     0 |     0 |     - |undercov|   0 | 430 |  42 | 252 |   0 |  0 |   0 |   0 | 0.000000e+00 | 1.656375e+01 |    Inf | unknown
  0.1s|     1 |     0 |    35 |     - |  3856k |   0 | 430 |  42 | 278 |  26 |  1 |   0 |   0 | 0.000000e+00 | 1.656375e+01 |    Inf | unknown
  0.1s|     1 |     0 |    35 |     - |  3859k |   0 | 430 |  42 | 278 |  26 |  1 |   0 |   0 | 0.000000e+00 | 1.656375e+01 |    Inf | unknown
  0.1s|     1 |     0 |    58 |     - |  4062k |   0 | 430 |  42 | 298 |  46 |  2 |   0 |   0 | 0.000000e+00 | 1.656375e+01 |    Inf | unknown
  0.1s|     1 |     0 |   125 |     - |  4107k |   0 | 430 |  42 | 323 |  71 |  3 |   0 |   0 | 0.000000e+00 | 1.656375e+01 |    Inf | unknown
  0.1s|     1 |     0 |   189 |     - |  4430k |   0 | 430 |  42 | 346 |  94 |  4 |   0 |   0 | 0.000000e+00 | 1.656375e+01 |    Inf | unknown
  0.1s|     1 |     0 |   258 |     - |  4488k |   0 | 430 |  42 | 372 | 120 |  5 |   0 |   0 | 0.000000e+00 | 1.656375e+01 |    Inf | unknown
  0.2s|     1 |     0 |   346 |     - |  4753k |   0 | 430 |  42 | 398 | 146 |  6 |   0 |   0 | 0.000000e+00 | 1.656375e+01 |    Inf | unknown
  0.2s|     1 |     0 |   434 |     - |  4878k |   0 | 430 |  42 | 425 | 173 |  7 |   0 |   0 | 0.000000e+00 | 1.656375e+01 |    Inf | unknown
  0.2s|     1 |     0 |   531 |     - |  5232k |   0 | 430 |  42 | 457 | 205 |  8 |   0 |   0 | 0.000000e+00 | 1.656375e+01 |    Inf | unknown
  0.2s|     1 |     0 |   616 |     - |  5347k |   0 | 430 |  42 | 478 | 226 |  9 |   0 |   0 | 0.000000e+00 | 1.656375e+01 |    Inf | unknown
  0.2s|     1 |     0 |   677 |     - |  5433k |   0 | 430 |  42 | 494 | 242 | 10 |   0 |   0 | 0.000000e+00 | 1.656375e+01 |    Inf | unknown
  0.2s|     1 |     0 |   716 |     - |  5633k |   0 | 430 |  42 | 510 | 258 | 11 |   0 |   0 | 0.000000e+00 | 1.656375e+01 |    Inf | unknown
  0.3s|     1 |     0 |   740 |     - |  5687k |   0 | 430 |  42 | 358 | 271 | 12 |   0 |   0 | 0.000000e+00 | 1.656375e+01 |    Inf | unknown
 time | node  | left  |LP iter|LP it/n|mem/heur|mdpt |vars |cons |rows |cuts |sepa|confs|strbr|  dualbound   | primalbound  |  gap   | compl. 
o 0.3s|     1 |     0 |  1173 |     - |feaspump|   0 | 430 |  42 | 358 | 271 | 12 |   0 |   0 | 0.000000e+00 | 1.159484e+01 |    Inf | unknown
  0.5s|     1 |     0 |  1173 |     - |  6906k |   0 | 430 |  42 | 358 | 271 | 12 |   0 |   0 | 0.000000e+00 | 1.159484e+01 |    Inf | unknown
  0.5s|     1 |     0 |  1190 |     - |  6940k |   0 | 430 |  42 | 370 | 283 | 13 |   0 |   0 | 0.000000e+00 | 1.159484e+01 |    Inf | unknown
  0.5s|     1 |     0 |  1199 |     - |  6945k |   0 | 430 |  42 | 376 | 289 | 14 |   0 |   0 | 0.000000e+00 | 1.159484e+01 |    Inf | unknown
  0.5s|     1 |     2 |  1199 |     - |  6954k |   0 | 430 |  42 | 376 | 289 | 14 |   0 |  22 | 0.000000e+00 | 1.159484e+01 |    Inf | unknown
d 0.6s|    10 |    11 |  2465 | 188.8 |pscostdi|   7 | 430 |  42 | 432 | 783 |  2 |   0 |  34 | 0.000000e+00 | 9.459921e+00 |    Inf | unknown
  1.3s|   100 |   101 | 21955 | 214.0 |    11M |  11 | 430 |  42 | 493 |7236 |  2 |   0 |  90 | 0.000000e+00 | 9.459921e+00 |    Inf | unknown
  2.2s|   200 |   201 | 42006 | 207.2 |    14M |  13 | 430 |  42 | 524 |  13k|  8 |   0 | 107 | 0.000000e+00 | 9.459921e+00 |    Inf | unknown
L 2.4s|   210 |   211 | 43642 | 205.1 |    rins|  13 | 430 |  42 | 539 |  14k|  9 |   0 | 107 | 0.000000e+00 | 8.559264e+00 |    Inf | unknown
  3.2s|   300 |   301 | 61335 | 202.6 |    19M |  13 | 430 |  42 | 535 |  20k|  8 |   0 | 117 | 0.000000e+00 | 8.559264e+00 |    Inf | unknown
  4.1s|   400 |   399 | 77726 | 192.9 |    21M |  14 | 430 |  42 | 574 |  26k|  7 |   1 | 128 | 0.000000e+00 | 8.559264e+00 |    Inf | unknown
  4.8s|   500 |   499 | 95606 | 190.1 |    23M |  14 | 430 |  42 | 548 |  33k| 10 |   1 | 135 | 0.000000e+00 | 8.559264e+00 |    Inf | unknown
  5.5s|   600 |   597 |111508 | 184.9 |    26M |  14 | 430 |  42 | 575 |  39k| 10 |   2 | 140 | 5.051634e-01 | 8.559264e+00 |1594.36%| unknown
  6.2s|   700 |   689 |125855 | 179.0 |    28M |  14 | 430 |  42 | 471 |  45k|  6 |   2 | 144 | 5.051634e-01 | 8.559264e+00 |1594.36%| unknown
  6.9s|   800 |   783 |140536 | 174.9 |    30M |  16 | 430 |  42 | 582 |  50k|  9 |   6 | 149 | 1.396066e+00 | 8.559264e+00 | 513.10%| unknown
 time | node  | left  |LP iter|LP it/n|mem/heur|mdpt |vars |cons |rows |cuts |sepa|confs|strbr|  dualbound   | primalbound  |  gap   | compl. 
  7.6s|   900 |   871 |154708 | 171.2 |    32M |  16 | 430 |  42 | 613 |  56k|  6 |  10 | 150 | 1.850000e+00 | 8.559264e+00 | 362.66%| unknown
  8.2s|  1000 |   961 |168189 | 167.6 |    34M |  16 | 430 |  42 | 560 |  61k|  7 |  13 | 155 | 2.033657e+00 | 8.559264e+00 | 320.88%| unknown
  8.8s|  1100 |  1043 |181496 | 164.4 |    36M |  16 | 430 |  42 | 635 |  66k|  5 |  13 | 160 | 2.167369e+00 | 8.559264e+00 | 294.91%|  17.35%
  9.5s|  1200 |  1137 |194712 | 161.8 |    37M |  17 | 430 |  42 | 611 |  71k|  6 |  13 | 165 | 2.200866e+00 | 8.559264e+00 | 288.90%|  18.03%
 10.1s|  1300 |  1223 |207593 | 159.2 |    40M |  17 | 430 |  42 | 597 |  76k|  7 |  19 | 167 | 2.350292e+00 | 8.559264e+00 | 264.18%|  18.59%
 10.7s|  1400 |  1313 |219529 | 156.4 |    41M |  17 | 430 |  42 | 645 |  81k|  6 |  26 | 173 | 2.380224e+00 | 8.559264e+00 | 259.60%|  19.37%
 11.3s|  1500 |  1389 |231339 | 153.8 |    44M |  17 | 430 |  42 | 591 |  86k|  8 |  33 | 174 | 2.488589e+00 | 8.559264e+00 | 243.94%|  20.81%
 11.8s|  1600 |  1467 |241490 | 150.5 |    45M |  17 | 430 |  42 | 569 |  90k|  6 |  38 | 176 | 2.706064e+00 | 8.559264e+00 | 216.30%|  21.34%
 12.3s|  1700 |  1547 |251863 | 147.8 |    46M |  17 | 430 |  42 | 603 |  94k|  7 |  42 | 177 | 2.781109e+00 | 8.559264e+00 | 207.76%|  21.96%
 12.8s|  1800 |  1615 |262141 | 145.3 |    47M |  17 | 430 |  42 | 571 |  99k|  8 |  43 | 179 | 2.785522e+00 | 8.559264e+00 | 207.28%|  22.58%
*13.1s|  1850 |  1478 |266658 | 143.8 |    LP  |  17 | 430 |  42 | 618 | 101k|  8 |  47 | 181 | 2.803951e+00 | 7.873742e+00 | 180.81%|  24.46%
 13.3s|  1900 |  1506 |272179 | 142.9 |    48M |  17 | 430 |  42 | 651 | 103k|  6 |  49 | 182 | 2.806160e+00 | 7.873742e+00 | 180.59%|  24.88%
 13.8s|  2000 |  1564 |283051 | 141.2 |    49M |  17 | 430 |  42 | 536 | 107k|  2 |  52 | 186 | 2.883459e+00 | 7.873742e+00 | 173.07%|  25.79%
*14.2s|  2081 |  1603 |290425 | 139.3 |    LP  |  18 | 430 |  42 | 651 | 110k|  8 |  57 | 186 | 3.032772e+00 | 7.845942e+00 | 158.71%|  26.47%
 14.3s|  2100 |  1606 |292148 | 138.8 |    50M |  18 | 430 |  42 | 547 | 111k|  2 |  57 | 186 | 3.032772e+00 | 7.845942e+00 | 158.71%|  26.73%
 time | node  | left  |LP iter|LP it/n|mem/heur|mdpt |vars |cons |rows |cuts |sepa|confs|strbr|  dualbound   | primalbound  |  gap   | compl. 
 14.7s|  2200 |  1650 |300845 | 136.5 |    51M |  18 | 430 |  42 | 610 | 115k|  1 |  64 | 187 | 3.172467e+00 | 7.845942e+00 | 147.31%|  27.83%
 15.2s|  2300 |  1700 |311117 | 135.0 |    52M |  18 | 430 |  42 | 553 | 119k|  0 |  66 | 188 | 3.339340e+00 | 7.845942e+00 | 134.95%|  28.99%
 15.6s|  2400 |  1746 |320575 | 133.3 |    53M |  18 | 430 |  42 | 528 | 123k|  3 |  70 | 188 | 3.383581e+00 | 7.845942e+00 | 131.88%|  29.95%
 16.1s|  2500 |  1798 |331118 | 132.2 |    55M |  18 | 430 |  42 | 625 | 127k|  1 |  74 | 188 | 3.474892e+00 | 7.845942e+00 | 125.79%|  30.61%
 16.5s|  2600 |  1832 |338186 | 129.8 |    56M |  18 | 430 |  42 | 582 | 130k|  2 |  78 | 190 | 3.604331e+00 | 7.845942e+00 | 117.68%|  31.67%
 16.9s|  2700 |  1852 |345711 | 127.8 |    56M |  18 | 430 |  42 | 568 | 133k|  0 |  82 | 192 | 3.638445e+00 | 7.845942e+00 | 115.64%|  32.42%
 17.3s|  2800 |  1884 |355053 | 126.6 |    59M |  18 | 430 |  42 | 521 | 136k|  0 |  87 | 195 | 3.686745e+00 | 7.845942e+00 | 112.81%|  33.51%
 17.7s|  2900 |  1930 |363987 | 125.3 |    60M |  18 | 430 |  42 | 595 | 140k|  6 |  89 | 195 | 3.696633e+00 | 7.845942e+00 | 112.25%|  34.09%
 18.1s|  3000 |  1980 |372200 | 123.9 |    60M |  18 | 430 |  42 | 608 | 143k|  8 |  96 | 195 | 3.827535e+00 | 7.845942e+00 | 104.99%|  34.69%
 18.6s|  3100 |  2030 |382303 | 123.1 |    63M |  18 | 430 |  42 | 561 | 147k|  1 | 107 | 205 | 3.845084e+00 | 7.845942e+00 | 104.05%|  35.18%
 18.9s|  3200 |  2060 |390095 | 121.7 |    63M |  18 | 430 |  42 | 537 | 151k|  1 | 111 | 205 | 3.929863e+00 | 7.845942e+00 |  99.65%|  36.03%
 19.3s|  3300 |  2096 |398246 | 120.5 |    63M |  18 | 430 |  42 | 625 | 154k|  3 | 113 | 205 | 3.973062e+00 | 7.845942e+00 |  97.48%|  36.64%
*19.6s|  3382 |  2049 |403424 | 119.1 |    LP  |  19 | 430 |  42 | 640 | 156k| 11 | 118 | 206 | 3.980960e+00 | 7.762014e+00 |  94.98%|  37.64%
 19.6s|  3400 |  2055 |404542 | 118.8 |    64M |  19 | 430 |  42 | 601 | 157k|  8 | 119 | 207 | 3.980961e+00 | 7.762014e+00 |  94.98%|  37.72%
 19.9s|  3500 |  2059 |411179 | 117.3 |    65M |  19 | 430 |  42 | 571 | 159k|  3 | 126 | 210 | 3.980968e+00 | 7.762014e+00 |  94.98%|  38.59%
 time | node  | left  |LP iter|LP it/n|mem/heur|mdpt |vars |cons |rows |cuts |sepa|confs|strbr|  dualbound   | primalbound  |  gap   | compl. 
 20.3s|  3600 |  2069 |418391 | 116.0 |    66M |  19 | 430 |  42 | 549 | 162k|  2 | 130 | 210 | 3.986465e+00 | 7.762014e+00 |  94.71%|  39.53%
 20.6s|  3700 |  2077 |425281 | 114.8 |    67M |  19 | 430 |  42 | 571 | 165k|  2 | 134 | 210 | 3.989145e+00 | 7.762014e+00 |  94.58%|  40.56%
 21.0s|  3800 |  2099 |431680 | 113.4 |    67M |  19 | 430 |  42 | 564 | 168k|  0 | 136 | 210 | 4.005786e+00 | 7.762014e+00 |  93.77%|  41.19%
 21.3s|  3900 |  2117 |438811 | 112.3 |    68M |  19 | 430 |  42 | 502 | 171k|  2 | 139 | 214 | 4.006359e+00 | 7.762014e+00 |  93.74%|  41.91%
 21.7s|  4000 |  2137 |446986 | 111.6 |    70M |  19 | 430 |  42 | 634 | 174k|  7 | 148 | 215 | 4.068362e+00 | 7.762014e+00 |  90.79%|  42.63%
 22.1s|  4100 |  2149 |453777 | 110.5 |    71M |  19 | 430 |  42 | 587 | 177k|  7 | 156 | 218 | 4.136660e+00 | 7.762014e+00 |  87.64%|  43.53%
 22.3s|  4200 |  2133 |458555 | 109.0 |    71M |  19 | 430 |  42 | 686 | 179k|  0 | 161 | 218 | 4.144978e+00 | 7.762014e+00 |  87.26%|  44.52%
 22.7s|  4300 |  2131 |464827 | 107.9 |    72M |  19 | 430 |  42 | 577 | 181k|  4 | 167 | 218 | 4.165829e+00 | 7.762014e+00 |  86.33%|  45.50%
 22.9s|  4400 |  2133 |471003 | 106.9 |    72M |  19 | 430 |  42 | 725 | 184k|  4 | 169 | 218 | 4.232115e+00 | 7.762014e+00 |  83.41%|  46.12%
 23.2s|  4500 |  2129 |476416 | 105.7 |    72M |  19 | 430 |  42 | 498 | 186k|  1 | 178 | 218 | 4.288735e+00 | 7.762014e+00 |  80.99%|  46.87%
 23.5s|  4600 |  2137 |482963 | 104.8 |    74M |  19 | 430 |  42 | 611 | 189k|  1 | 182 | 218 | 4.316781e+00 | 7.762014e+00 |  79.81%|  47.65%
 23.8s|  4700 |  2147 |489388 | 104.0 |    74M |  19 | 430 |  42 | 592 | 191k|  0 | 186 | 218 | 4.354936e+00 | 7.762014e+00 |  78.23%|  48.37%
 24.2s|  4800 |  2137 |495105 | 103.0 |    74M |  19 | 430 |  42 | 604 | 194k|  0 | 191 | 218 | 4.449314e+00 | 7.762014e+00 |  74.45%|  49.24%
 24.5s|  4900 |  2129 |501277 | 102.2 |    74M |  19 | 430 |  42 | 577 | 196k|  0 | 194 | 219 | 4.480019e+00 | 7.762014e+00 |  73.26%|  49.99%
 24.8s|  5000 |  2133 |507779 | 101.4 |    74M |  19 | 430 |  42 | 555 | 199k|  1 | 199 | 219 | 4.575474e+00 | 7.762014e+00 |  69.64%|  50.81%
 time | node  | left  |LP iter|LP it/n|mem/heur|mdpt |vars |cons |rows |cuts |sepa|confs|strbr|  dualbound   | primalbound  |  gap   | compl. 
 25.1s|  5100 |  2135 |512941 | 100.4 |    74M |  19 | 430 |  42 | 593 | 201k|  8 | 203 | 220 | 4.581363e+00 | 7.762014e+00 |  69.43%|  51.35%
 25.5s|  5200 |  2159 |520694 | 100.0 |    74M |  19 | 430 |  42 | 627 | 204k|  1 | 209 | 220 | 4.607645e+00 | 7.762014e+00 |  68.46%|  51.72%
 25.8s|  5300 |  2179 |529409 |  99.8 |    77M |  19 | 430 |  42 | 737 | 207k|  6 | 210 | 221 | 4.607671e+00 | 7.762014e+00 |  68.46%|  52.03%
 26.1s|  5400 |  2175 |536271 |  99.2 |    77M |  19 | 430 |  42 | 568 | 210k|  2 | 214 | 221 | 4.607682e+00 | 7.762014e+00 |  68.46%|  52.71%
 26.4s|  5500 |  2181 |542796 |  98.6 |    77M |  19 | 430 |  42 | 549 | 213k|  7 | 215 | 222 | 4.634738e+00 | 7.762014e+00 |  67.47%|  53.31%
 26.7s|  5600 |  2163 |547137 |  97.6 |    77M |  19 | 430 |  42 | 537 | 214k|  1 | 218 | 222 | 4.689640e+00 | 7.762014e+00 |  65.51%|  53.78%
 26.9s|  5700 |  2137 |552090 |  96.7 |    78M |  19 | 430 |  42 | 617 | 216k|  0 | 221 | 224 | 4.737801e+00 | 7.762014e+00 |  63.83%|  54.45%
 27.2s|  5800 |  2137 |558004 |  96.1 |    79M |  19 | 430 |  42 | 604 | 219k|  0 | 224 | 224 | 4.794969e+00 | 7.762014e+00 |  61.88%|  55.01%
 27.5s|  5900 |  2115 |563633 |  95.4 |    80M |  19 | 430 |  42 | 556 | 221k|  1 | 227 | 226 | 4.853852e+00 | 7.762014e+00 |  59.91%|  56.05%
 27.7s|  6000 |  2099 |568939 |  94.7 |    80M |  19 | 430 |  42 | 546 | 222k|  2 | 230 | 226 | 4.874219e+00 | 7.762014e+00 |  59.25%|  56.81%
 28.0s|  6100 |  2081 |573868 |  94.0 |    80M |  19 | 430 |  42 | 752 | 224k|  0 | 235 | 226 | 4.902420e+00 | 7.762014e+00 |  58.33%|  57.58%
 28.3s|  6200 |  2075 |579052 |  93.3 |    81M |  19 | 430 |  42 | 580 | 226k|  6 | 239 | 226 | 4.916207e+00 | 7.762014e+00 |  57.89%|  58.18%
 28.5s|  6300 |  2053 |583811 |  92.6 |    81M |  19 | 430 |  42 | 577 | 228k|  0 | 240 | 227 | 4.939409e+00 | 7.762014e+00 |  57.14%|  58.99%
 28.8s|  6400 |  2039 |589342 |  92.0 |    81M |  19 | 430 |  42 | 546 | 230k|  2 | 245 | 229 | 4.992067e+00 | 7.762014e+00 |  55.49%|  59.62%
 29.0s|  6500 |  2019 |593857 |  91.3 |    81M |  19 | 430 |  42 | 654 | 232k|  7 | 251 | 229 | 5.066630e+00 | 7.762014e+00 |  53.20%|  60.13%
 time | node  | left  |LP iter|LP it/n|mem/heur|mdpt |vars |cons |rows |cuts |sepa|confs|strbr|  dualbound   | primalbound  |  gap   | compl. 
 29.2s|  6600 |  1993 |598282 |  90.5 |    81M |  19 | 430 |  42 | 554 | 233k|  0 | 255 | 230 | 5.078357e+00 | 7.762014e+00 |  52.84%|  60.69%
 29.6s|  6700 |  1995 |604515 |  90.1 |    82M |  19 | 430 |  42 | 599 | 236k|  6 | 258 | 234 | 5.158031e+00 | 7.762014e+00 |  50.48%|  61.29%
 29.8s|  6800 |  1973 |608671 |  89.4 |    82M |  19 | 430 |  42 | 600 | 238k|  1 | 261 | 234 | 5.179629e+00 | 7.762014e+00 |  49.86%|  61.82%
 30.0s|  6900 |  1945 |613515 |  88.8 |    82M |  19 | 430 |  42 | 611 | 239k|  0 | 266 | 236 | 5.216526e+00 | 7.762014e+00 |  48.80%|  62.55%
 30.3s|  7000 |  1947 |620054 |  88.5 |    82M |  19 | 430 |  42 | 808 | 242k|  1 | 271 | 236 | 5.224187e+00 | 7.762014e+00 |  48.58%|  63.26%
 30.6s|  7100 |  1921 |624517 |  87.9 |    82M |  19 | 430 |  42 | 623 | 244k|  0 | 275 | 236 | 5.233065e+00 | 7.762014e+00 |  48.33%|  64.02%
 30.8s|  7200 |  1897 |629411 |  87.3 |    82M |  19 | 430 |  42 | 592 | 245k|  1 | 280 | 236 | 5.269029e+00 | 7.762014e+00 |  47.31%|  64.65%
 31.0s|  7300 |  1865 |633917 |  86.7 |    82M |  19 | 430 |  42 | 587 | 247k|  0 | 284 | 238 | 5.285619e+00 | 7.762014e+00 |  46.85%|  65.26%
 31.3s|  7400 |  1845 |638402 |  86.2 |    82M |  19 | 430 |  42 | 510 | 249k|  1 | 287 | 239 | 5.307812e+00 | 7.762014e+00 |  46.24%|  65.79%
 31.5s|  7500 |  1811 |642241 |  85.5 |    82M |  19 | 430 |  42 | 521 | 250k|  0 | 289 | 240 | 5.348277e+00 | 7.762014e+00 |  45.13%|  66.47%
 31.7s|  7600 |  1789 |646407 |  85.0 |    82M |  19 | 430 |  42 | 577 | 251k|  0 | 293 | 240 | 5.371026e+00 | 7.762014e+00 |  44.52%|  66.99%
 31.9s|  7700 |  1775 |651046 |  84.5 |    83M |  19 | 430 |  42 | 572 | 253k|  2 | 297 | 241 | 5.419205e+00 | 7.762014e+00 |  43.23%|  67.48%
 32.1s|  7800 |  1751 |654964 |  83.9 |    83M |  19 | 430 |  42 | 523 | 254k|  2 | 301 | 242 | 5.462698e+00 | 7.762014e+00 |  42.09%|  68.08%
 32.4s|  7900 |  1725 |659523 |  83.4 |    83M |  19 | 430 |  42 | 524 | 256k|  1 | 305 | 242 | 5.471318e+00 | 7.762014e+00 |  41.87%|  68.60%
 32.6s|  8000 |  1703 |664548 |  83.0 |    84M |  19 | 430 |  42 | 586 | 258k|  8 | 309 | 243 | 5.509253e+00 | 7.762014e+00 |  40.89%|  69.26%
 time | node  | left  |LP iter|LP it/n|mem/heur|mdpt |vars |cons |rows |cuts |sepa|confs|strbr|  dualbound   | primalbound  |  gap   | compl. 
 32.9s|  8100 |  1677 |669631 |  82.6 |    85M |  19 | 430 |  42 | 558 | 260k|  2 | 315 | 243 | 5.519035e+00 | 7.762014e+00 |  40.64%|  69.90%
 33.1s|  8200 |  1657 |674517 |  82.2 |    85M |  19 | 430 |  42 | 532 | 262k|  1 | 318 | 243 | 5.525010e+00 | 7.762014e+00 |  40.49%|  70.78%
 33.4s|  8300 |  1637 |679612 |  81.8 |    85M |  19 | 430 |  42 |1349 | 264k|  0 | 320 | 244 | 5.532784e+00 | 7.762014e+00 |  40.29%|  71.17%
 33.6s|  8400 |  1599 |683286 |  81.3 |    85M |  19 | 430 |  42 | 585 | 265k|  0 | 325 | 244 | 5.542795e+00 | 7.762014e+00 |  40.04%|  71.67%
 33.8s|  8500 |  1583 |688657 |  80.9 |    85M |  19 | 430 |  42 | 656 | 267k|  6 | 327 | 245 | 5.562971e+00 | 7.762014e+00 |  39.53%|  72.17%
 34.1s|  8600 |  1557 |692817 |  80.5 |    85M |  19 | 430 |  42 | 537 | 268k|  2 | 331 | 245 | 5.576178e+00 | 7.762014e+00 |  39.20%|  72.71%
 34.3s|  8700 |  1545 |698039 |  80.2 |    85M |  19 | 430 |  42 | 605 | 270k|  8 | 332 | 246 | 5.580559e+00 | 7.762014e+00 |  39.09%|  73.00%
 34.5s|  8800 |  1511 |702186 |  79.7 |    85M |  19 | 430 |  42 | 502 | 272k|  0 | 334 | 246 | 5.601762e+00 | 7.762014e+00 |  38.56%|  73.62%
 34.8s|  8900 |  1475 |706327 |  79.3 |    86M |  19 | 430 |  42 | 885 | 273k|  1 | 338 | 246 | 5.645134e+00 | 7.762014e+00 |  37.50%|  74.30%
 35.0s|  9000 |  1455 |710854 |  78.9 |    86M |  19 | 430 |  42 | 817 | 275k|  1 | 339 | 248 | 5.667221e+00 | 7.762014e+00 |  36.96%|  74.68%
 35.2s|  9100 |  1429 |715094 |  78.5 |    86M |  19 | 430 |  42 | 692 | 276k|  1 | 344 | 251 | 5.672616e+00 | 7.762014e+00 |  36.83%|  75.09%
 35.4s|  9200 |  1397 |719617 |  78.1 |    86M |  19 | 430 |  42 | 537 | 278k|  0 | 347 | 252 | 5.695014e+00 | 7.762014e+00 |  36.29%|  75.69%
 35.6s|  9300 |  1359 |723563 |  77.7 |    86M |  19 | 430 |  42 | 522 | 279k|  0 | 355 | 253 | 5.748268e+00 | 7.762014e+00 |  35.03%|  76.30%
 35.9s|  9400 |  1327 |727780 |  77.4 |    86M |  19 | 430 |  42 | 548 | 281k|  3 | 359 | 255 | 5.770658e+00 | 7.762014e+00 |  34.51%|  76.81%
 36.1s|  9500 |  1293 |731603 |  76.9 |    86M |  19 | 430 |  42 | 646 | 282k|  0 | 360 | 255 | 5.811123e+00 | 7.762014e+00 |  33.57%|  77.51%
 time | node  | left  |LP iter|LP it/n|mem/heur|mdpt |vars |cons |rows |cuts |sepa|confs|strbr|  dualbound   | primalbound  |  gap   | compl. 
 36.3s|  9600 |  1265 |736016 |  76.6 |    86M |  19 | 430 |  42 | 539 | 283k|  2 | 363 | 255 | 5.858694e+00 | 7.762014e+00 |  32.49%|  78.29%
 36.6s|  9700 |  1231 |740096 |  76.2 |    87M |  19 | 430 |  42 | 467 | 285k|  1 | 366 | 258 | 5.866438e+00 | 7.762014e+00 |  32.31%|  78.87%
 36.8s|  9800 |  1209 |744332 |  75.9 |    87M |  19 | 430 |  42 | 493 | 287k|  2 | 369 | 259 | 5.899213e+00 | 7.762014e+00 |  31.58%|  79.56%
 37.0s|  9900 |  1173 |748257 |  75.5 |    87M |  19 | 430 |  42 | 575 | 288k|  3 | 373 | 260 | 5.932260e+00 | 7.762014e+00 |  30.84%|  80.11%
 37.2s| 10000 |  1145 |752323 |  75.2 |    87M |  19 | 430 |  42 | 721 | 289k|  0 | 378 | 260 | 5.968756e+00 | 7.762014e+00 |  30.04%|  80.65%
 37.5s| 10100 |  1143 |759681 |  75.1 |    87M |  19 | 430 |  42 | 642 | 292k|  0 | 383 | 260 | 5.985467e+00 | 7.762014e+00 |  29.68%|  81.21%
 37.7s| 10200 |  1111 |763785 |  74.8 |    87M |  19 | 430 |  42 | 500 | 293k|  0 | 386 | 260 | 6.052737e+00 | 7.762014e+00 |  28.24%|  81.78%
 38.0s| 10300 |  1075 |767977 |  74.5 |    87M |  19 | 430 |  42 | 628 | 295k|  1 | 390 | 260 | 6.100211e+00 | 7.762014e+00 |  27.24%|  82.28%
 38.2s| 10400 |  1049 |772600 |  74.2 |    87M |  19 | 430 |  42 | 491 | 296k|  0 | 399 | 265 | 6.102625e+00 | 7.762014e+00 |  27.19%|  82.84%
 38.4s| 10500 |  1005 |776604 |  73.9 |    87M |  19 | 430 |  42 | 572 | 297k|  1 | 402 | 266 | 6.145972e+00 | 7.762014e+00 |  26.29%|  83.46%
 38.6s| 10600 |   967 |781381 |  73.6 |    87M |  19 | 430 |  42 | 995 | 299k|  0 | 402 | 266 | 6.161378e+00 | 7.762014e+00 |  25.98%|  84.05%
 38.8s| 10700 |   921 |784816 |  73.3 |    87M |  19 | 430 |  42 | 721 | 300k|  0 | 404 | 266 | 6.182616e+00 | 7.762014e+00 |  25.55%|  84.62%
 39.0s| 10800 |   883 |788198 |  72.9 |    88M |  19 | 430 |  42 | 553 | 301k|  0 | 408 | 266 | 6.202541e+00 | 7.762014e+00 |  25.14%|  85.14%
 39.2s| 10900 |   853 |792547 |  72.6 |    88M |  19 | 430 |  42 | 619 | 303k|  5 | 415 | 268 | 6.211304e+00 | 7.762014e+00 |  24.97%|  85.69%
 39.5s| 11000 |   807 |796326 |  72.3 |    88M |  19 | 430 |  42 | 532 | 304k|  2 | 418 | 271 | 6.277345e+00 | 7.762014e+00 |  23.65%|  86.38%
 time | node  | left  |LP iter|LP it/n|mem/heur|mdpt |vars |cons |rows |cuts |sepa|confs|strbr|  dualbound   | primalbound  |  gap   | compl. 
 39.6s| 11100 |   753 |799205 |  71.9 |    88M |  19 | 430 |  42 | 562 | 305k|  0 | 423 | 272 | 6.286348e+00 | 7.762014e+00 |  23.47%|  86.96%
 39.9s| 11200 |   723 |803599 |  71.7 |    88M |  19 | 430 |  42 | 598 | 306k|  0 | 426 | 274 | 6.328485e+00 | 7.762014e+00 |  22.65%|  87.63%
 40.1s| 11300 |   677 |807228 |  71.4 |    88M |  19 | 430 |  42 | 638 | 307k|  6 | 427 | 275 | 6.354180e+00 | 7.762014e+00 |  22.16%|  88.12%
 40.3s| 11400 |   631 |811137 |  71.1 |    89M |  19 | 430 |  42 | 611 | 309k|  0 | 429 | 275 | 6.411039e+00 | 7.762014e+00 |  21.07%|  88.93%
 40.5s| 11500 |   599 |815401 |  70.8 |    89M |  19 | 430 |  42 | 607 | 310k|  3 | 431 | 275 | 6.465719e+00 | 7.762014e+00 |  20.05%|  89.51%
 40.7s| 11600 |   551 |818818 |  70.5 |    90M |  19 | 430 |  42 | 756 | 311k|  5 | 435 | 276 | 6.496620e+00 | 7.762014e+00 |  19.48%|  90.14%
 40.9s| 11700 |   505 |822181 |  70.2 |    90M |  19 | 430 |  42 | 722 | 312k|  0 | 440 | 277 | 6.592353e+00 | 7.762014e+00 |  17.74%|  90.79%
 41.1s| 11800 |   459 |825634 |  69.9 |    90M |  19 | 430 |  42 |1053 | 313k|  0 | 444 | 278 | 6.628781e+00 | 7.762014e+00 |  17.10%|  91.48%
 41.2s| 11900 |   423 |829372 |  69.6 |    90M |  19 | 430 |  42 |1025 | 314k|  0 | 447 | 279 | 6.639309e+00 | 7.762014e+00 |  16.91%|  92.07%
 41.4s| 12000 |   383 |832780 |  69.3 |    90M |  19 | 430 |  42 | 597 | 315k|  0 | 452 | 282 | 6.666046e+00 | 7.762014e+00 |  16.44%|  92.58%
 41.6s| 12100 |   339 |836204 |  69.1 |    90M |  19 | 430 |  42 | 544 | 316k|  3 | 458 | 283 | 6.676653e+00 | 7.762014e+00 |  16.26%|  93.22%
 41.8s| 12200 |   293 |840167 |  68.8 |    90M |  19 | 430 |  42 | 593 | 318k|  2 | 459 | 283 | 6.732058e+00 | 7.762014e+00 |  15.30%|  94.03%
 42.0s| 12300 |   261 |843974 |  68.6 |    90M |  19 | 430 |  42 | 586 | 319k|  0 | 462 | 284 | 6.782875e+00 | 7.762014e+00 |  14.44%|  94.66%
 42.2s| 12400 |   225 |848469 |  68.4 |    90M |  19 | 430 |  42 | 621 | 320k|  4 | 464 | 284 | 6.870958e+00 | 7.762014e+00 |  12.97%|  95.27%
 42.4s| 12500 |   179 |852250 |  68.1 |    90M |  19 | 430 |  42 | 588 | 321k|  0 | 468 | 286 | 6.915044e+00 | 7.762014e+00 |  12.25%|  96.32%
 time | node  | left  |LP iter|LP it/n|mem/heur|mdpt |vars |cons |rows |cuts |sepa|confs|strbr|  dualbound   | primalbound  |  gap   | compl. 
 42.6s| 12600 |   131 |856096 |  67.9 |    91M |  19 | 430 |  42 | 528 | 322k|  0 | 476 | 289 | 6.992213e+00 | 7.762014e+00 |  11.01%|  97.00%
 42.8s| 12700 |    87 |859200 |  67.6 |    91M |  19 | 430 |  42 | 499 | 323k|  2 | 479 | 289 | 7.130952e+00 | 7.762014e+00 |   8.85%|  97.65%
 43.0s| 12800 |    37 |863245 |  67.4 |    92M |  19 | 430 |  42 | 552 | 324k|  0 | 483 | 291 | 7.239550e+00 | 7.762014e+00 |   7.22%|  98.66%

SCIP Status        : problem is solved [optimal solution found]
Solving Time (sec) : 43.13
Solving Nodes      : 12877
Primal Bound       : +7.76201400097913e+00 (13 solutions)
Dual Bound         : +7.76201400097913e+00
Gap                : 0.00 %


--- Reading solution for model GAMS_MODEL
***
*** Solver did not provide marginals for model GAMS_MODEL
***
--- Executing after solve: elapsed 0:00:43.198
--- model.gms(227) 3 Mb
--- model.gms(376) 5 Mb
--- Putfile results /local/scratch/a/sgusev/repos/k_means/data/gams_scip_gdp.binary_multiplication/no_mode/2026-02-19_09-50-09/original/results.dat
--- Putfile statresults /local/scratch/a/sgusev/repos/k_means/data/gams_scip_gdp.binary_multiplication/no_mode/2026-02-19_09-50-09/original/resultsstat.dat
*** Status: Normal completion
--- Job model.gms Stop 02/19/26 09:50:53 elapsed 0:00:43.198
Original problem solved. Time taken: 43.6767156124115 seconds
Original objective value: 7.762014000979136
